100
128
46
33
9
61
7
3
6
49
40
1
47
15
13
61
38
19
45
6
22
15
39
63
18
58
20
16
47
34
32
31
8
36
26
24
60
30
46
29
28
44
27
55
62
28
52
29
47
38
38
27
23
43
22
38
61
16
51
58
4
5
27
42
4
49
34
1
32
25
30
63
49
28
3
64
64
47
34
54
57
6
31
48
48
31
28
35
51
29
48
64
29
32
40
52
62
63
35
34
1
10